NAME : mr52
COMMENT : 52-city problem (DISC)
TYPE : TSP
DIMENSION : 52
EDGE_WEIGHT_TYPE : EUC_2D
NODE_COORD_SECTION
1 83 48
2 3 91
3 22 38
4 62 53
5 10 70
6 63 43
7 6 64
8 97 60
9 99 46
10 53 92
11 64 75
12 77 93
13 77 90
14 42 33
15 77 70
16 43 6
17 93 21
18 69 73
19 37 76
20 86 30
21 39 96
22 10 1
23 33 35
24 42 20
25 75 44
26 66 93
27 21 29
28 81 43
29 79 47
30 40 86
31 52 99
32 80 48
33 45 54
34 75 79
35 8 82
36 49 15
37 44 35
38 25 70
39 87 19
40 3 46
41 46 98
42 5 100
43 50 76
44 86 52
45 34 52
46 91 7
47 13 98
48 16 96
49 79 79
50 67 85
51 73 40
52 54 80
EOF
